43
0 1 2 1 3 4 5 3 6 4 7 5 8 9 6 10 11 12 13 14 15 6 16 17 18 19 17 8 20 21 22 9 12 13 16 10 15 23 3 19 4 20 17 23 22 24 18 25 26 27 28 29 1 30 31 20 24 26 28 30 27 10 32 33 34 27 19 16 11 35 29 31 21 36 37 33 38 36 34 39 32 2 40 39 25 25 41 42 13 35 37 38 41 40 42 14 36 7 38 0 
